; 
(set-info :status unknown)
(declare-fun node_0x7ffff172c550 () (_ BitVec 1))
(declare-fun ccso_node_0x7ffff1738220 () (_ BitVec 32))
(declare-fun ine_0x7ffff1738960 () (_ BitVec 1))
(declare-fun carg_node_0x7ffff172ba80 () (_ BitVec 64))
(declare-fun carg_node_0x7ffff06e1b40_CS0x4148268 () (_ BitVec 64))
(declare-fun carg_node_0x7ffff172bc00 () (_ BitVec 64))
(declare-fun carg_node_0x7ffff06e1ce0_CS0x4148268 () (_ BitVec 64))
(declare-fun node_0x7ffff1737c50 () (_ BitVec 64))
(declare-fun carg_node_0x7ffff06e1940_CS0x4148268 () (_ BitVec 64))
(declare-fun fsub_0x7ffff1737df0 () (_ BitVec 64))
(declare-fun fmul_0x7ffff1737a20 () (_ BitVec 64))
(declare-fun node_0x7ffff172e1e0 () (_ BitVec 64))
(declare-fun node_0x7ffff172e550 () (_ BitVec 64))
(declare-fun node_0x7ffff1737880 () (_ BitVec 64))
(declare-fun node_0x7ffff17374b0 () (_ BitVec 64))
(declare-fun fadd_0x7ffff1737650 () (_ BitVec 64))
(declare-fun fmul_0x7ffff1737280 () (_ BitVec 64))
(declare-fun node_0x7ffff17370e0 () (_ BitVec 64))
(declare-fun fmul_0x7ffff172e6f0 () (_ BitVec 64))
(declare-fun carg_node_0x7ffff172b900 () (_ BitVec 64))
(declare-fun node_0x7ffff1736d50 () (_ BitVec 64))
(declare-fun fmul_0x7ffff1736ef0 () (_ BitVec 64))
(declare-fun node_0x7ffff1733560 () (_ BitVec 64))
(declare-fun fsub_0x7ffff1733700 () (_ BitVec 64))
(declare-fun carg_node_0x7ffff172b0e0 () (_ BitVec 64))
(declare-fun node_0x7ffff17330f0 () (_ BitVec 64))
(declare-fun LdMem_0x7ffff1733290 () (_ BitVec 64))
(declare-fun pcso_node_0x1211b470 () (_ BitVec 64))
(declare-fun StMem_0x1211b650 () (_ BitVec 64))
(declare-fun R0x7ffff172aca0 () (_ BitVec 1))
(declare-fun node_0x7ffff1736980 () (_ BitVec 64))
(declare-fun fmul_0x7ffff1736b20 () (_ BitVec 64))
(declare-fun fmul_0x7ffff172e360 () (_ BitVec 64))
(declare-fun carg_node_0x7ffff172b780 () (_ BitVec 64))
(declare-fun node_0x7ffff17365f0 () (_ BitVec 64))
(declare-fun fmul_0x7ffff1736790 () (_ BitVec 64))
(declare-fun node_0x7ffff1732920 () (_ BitVec 64))
(declare-fun fsub_0x7ffff1732ac0 () (_ BitVec 64))
(declare-fun carg_node_0x7ffff172b590 () (_ BitVec 64))
(declare-fun node_0x7ffff17324d0 () (_ BitVec 64))
(declare-fun LdMem_0x7ffff1732650 () (_ BitVec 64))
(declare-fun pcso_node_0x1211bc60 () (_ BitVec 64))
(declare-fun StMem_0x1211be10 () (_ BitVec 64))
(declare-fun node_0x7ffff1736220 () (_ BitVec 64))
(declare-fun carg_node_0x7ffff06e17e0_CS0x4148268 () (_ BitVec 64))
(declare-fun fmul_0x7ffff17363c0 () (_ BitVec 64))
(declare-fun node_0x7ffff1735d10 () (_ BitVec 64))
(declare-fun fadd_0x7ffff1735eb0 () (_ BitVec 64))
(declare-fun fmul_0x7ffff1735ae0 () (_ BitVec 64))
(declare-fun node_0x7ffff1735940 () (_ BitVec 64))
(declare-fun node_0x7ffff1735570 () (_ BitVec 64))
(declare-fun fmul_0x7ffff1735710 () (_ BitVec 64))
(declare-fun node_0x7ffff1735100 () (_ BitVec 64))
(declare-fun LdMem_0x7ffff17305e0 () (_ BitVec 64))
(declare-fun pcso_node_0x12117e10 () (_ BitVec 64))
(declare-fun StMem_0x12117fc0 () (_ BitVec 64))
(declare-fun node_0x7ffff1734930 () (_ BitVec 64))
(declare-fun fmul_0x7ffff1734ad0 () (_ BitVec 64))
(declare-fun node_0x7ffff1734150 () (_ BitVec 64))
(declare-fun fmul_0x7ffff1734700 () (_ BitVec 64))
(declare-fun node_0x7ffff1733d30 () (_ BitVec 64))
(declare-fun LdMem_0x7ffff172ed80 () (_ BitVec 64))
(declare-fun pcso_node_0x12118610 () (_ BitVec 64))
(declare-fun StMem_0x121187c0 () (_ BitVec 64))
(declare-fun node_0x7ffff1731ac0 () (_ BitVec 64))
(declare-fun carg_node_0x7ffff06e1570_CS0x4148268 () (_ BitVec 64))
(declare-fun fadd_0x7ffff1731c60 () (_ BitVec 64))
(declare-fun fmul_0x7ffff1731890 () (_ BitVec 64))
(declare-fun node_0x7ffff1731510 () (_ BitVec 64))
(declare-fun node_0x7ffff1731140 () (_ BitVec 64))
(declare-fun fmul_0x7ffff17312e0 () (_ BitVec 64))
(declare-fun node_0x7ffff1730cd0 () (_ BitVec 64))
(declare-fun node_0x7ffff1730440 () (_ BitVec 64))
(declare-fun node_0x7ffff172fc50 () (_ BitVec 64))
(declare-fun fmul_0x7ffff172fdf0 () (_ BitVec 64))
(declare-fun node_0x7ffff172f880 () (_ BitVec 64))
(declare-fun fmul_0x7ffff172fa20 () (_ BitVec 64))
(declare-fun node_0x7ffff172f410 () (_ BitVec 64))
(declare-fun node_0x7ffff172ec00 () (_ BitVec 64))
(declare-fun return_node_0x7ffff06e1fc0_CS0x4148268 () (_ BitVec 32))
(declare-fun node_0x1211b120 () (_ BitVec 64))
(declare-fun parg_node_0x107ae730_CS0x4146978 () (_ BitVec 64))
(declare-fun LdMem_0x1211aad0 () (_ BitVec 64))
(declare-fun parg_node_0x1211adf0 () (_ BitVec 64))
(declare-fun StMem_0x1211ac40 () (_ BitVec 64))
(declare-fun node_0x107b0280_CS0x4146978 () (_ BitVec 64))
(declare-fun node_0x1211c2f0 () (_ BitVec 64))
(declare-fun parg_node_0x107adc10_CS0x4146978 () (_ BitVec 64))
(declare-fun LdMem_0x12119f60 () (_ BitVec 64))
(declare-fun parg_node_0x1211a1b0 () (_ BitVec 64))
(declare-fun StMem_0x1211a0a0 () (_ BitVec 64))
(declare-fun node_0x107af910_CS0x4146978 () (_ BitVec 64))
(declare-fun node_0x12119e20 () (_ BitVec 64))
(declare-fun parg_node_0x107b61b0_CS0x41455c8 () (_ BitVec 64))
(declare-fun LdMem_0x12117a90 () (_ BitVec 64))
(declare-fun parg_node_0x12117ce0 () (_ BitVec 64))
(declare-fun StMem_0x12117bd0 () (_ BitVec 64))
(declare-fun node_0x107b7d30_CS0x41455c8 () (_ BitVec 64))
(declare-fun node_0x7c37ea0 () (_ BitVec 64))
(declare-fun parg_node_0x107b5690_CS0x41455c8 () (_ BitVec 64))
(declare-fun LdMem_0x12117710 () (_ BitVec 64))
(declare-fun parg_node_0x12117960 () (_ BitVec 64))
(declare-fun StMem_0x12117850 () (_ BitVec 64))
(declare-fun node_0x107b7470_CS0x41455c8 () (_ BitVec 64))
(declare-fun carg_node_0x7ffff172be90 () (_ BitVec 64))
(assert
 (= node_0x7ffff172c550 (_ bv1 1)))
(assert
 (let (($x104 (= ine_0x7ffff1738960 (ite (and (distinct ccso_node_0x7ffff1738220 (_ bv0 32)) true) (_ bv1 1) (_ bv0 1)))))
 (and (= node_0x7ffff172c550 ine_0x7ffff1738960) $x104)))
(assert
 (= carg_node_0x7ffff06e1b40_CS0x4148268 carg_node_0x7ffff172ba80))
(assert
 (= carg_node_0x7ffff06e1ce0_CS0x4148268 carg_node_0x7ffff172bc00))
(assert
 (= carg_node_0x7ffff06e1940_CS0x4148268 node_0x7ffff1737c50))
(assert
 (let (($x277 (= node_0x7ffff1737c50 fsub_0x7ffff1737df0)))
 (let (($x255 (or (or (= node_0x7ffff172e550 (_ bv0 64)) (= node_0x7ffff172e1e0 (_ bv0 64))) (and (distinct fmul_0x7ffff1737a20 (_ bv0 64)) true))))
 (let (($x252 (= fmul_0x7ffff1737a20 (bvmul node_0x7ffff172e550 node_0x7ffff172e1e0))))
 (let (($x256 (and $x252 $x255)))
 (let (($x280 (= node_0x7ffff1737880 fmul_0x7ffff1737a20)))
 (let (($x123 (= fsub_0x7ffff1737df0 (bvsub node_0x7ffff17374b0 node_0x7ffff1737880))))
 (let (($x474 (= node_0x7ffff17374b0 fadd_0x7ffff1737650)))
 (let (($x587 (= node_0x7ffff17370e0 fmul_0x7ffff1737280)))
 (let (($x244 (= carg_node_0x7ffff172b900 (_ bv0 64))))
 (let ((?x242 (bvmul carg_node_0x7ffff172b900 carg_node_0x7ffff172b900)))
 (let (($x243 (= fmul_0x7ffff172e6f0 ?x242)))
 (let (($x248 (and $x243 (or (or $x244 $x244) (and (distinct fmul_0x7ffff172e6f0 (_ bv0 64)) true)))))
 (let (($x404 (= node_0x7ffff172e550 fmul_0x7ffff172e6f0)))
 (let (($x211 (= node_0x7ffff172e550 (_ bv0 64))))
 (let (($x210 (= node_0x7ffff1736d50 (_ bv0 64))))
 (let (($x212 (or $x210 $x211)))
 (let ((?x208 (bvmul node_0x7ffff1736d50 node_0x7ffff172e550)))
 (let (($x215 (and (= fmul_0x7ffff1737280 ?x208) (or $x212 (and (distinct fmul_0x7ffff1737280 (_ bv0 64)) true)))))
 (let (($x549 (= node_0x7ffff1736d50 fmul_0x7ffff1736ef0)))
 (let (($x224 (or (or (= node_0x7ffff1733560 (_ bv0 64)) (= node_0x7ffff1733560 (_ bv0 64))) (and (distinct fmul_0x7ffff1736ef0 (_ bv0 64)) true))))
 (let ((?x219 (bvmul node_0x7ffff1733560 node_0x7ffff1733560)))
 (let (($x220 (= fmul_0x7ffff1736ef0 ?x219)))
 (let (($x225 (and $x220 $x224)))
 (let (($x387 (= node_0x7ffff1733560 fsub_0x7ffff1733700)))
 (let (($x231 (= fsub_0x7ffff1733700 (bvsub node_0x7ffff17330f0 carg_node_0x7ffff172b0e0))))
 (let (($x545 (= node_0x7ffff17330f0 LdMem_0x7ffff1733290)))
 (let (($x114 (= LdMem_0x7ffff1733290 StMem_0x1211b650)))
 (let ((?x128 (bvadd node_0x7ffff1736980 node_0x7ffff17370e0)))
 (let (($x129 (= fadd_0x7ffff1737650 ?x128)))
 (let (($x438 (= node_0x7ffff1736980 fmul_0x7ffff1736b20)))
 (let (($x199 (= carg_node_0x7ffff172b780 (_ bv0 64))))
 (let ((?x197 (bvmul carg_node_0x7ffff172b780 carg_node_0x7ffff172b780)))
 (let (($x198 (= fmul_0x7ffff172e360 ?x197)))
 (let (($x203 (and $x198 (or (or $x199 $x199) (and (distinct fmul_0x7ffff172e360 (_ bv0 64)) true)))))
 (let (($x275 (= node_0x7ffff172e1e0 fmul_0x7ffff172e360)))
 (let (($x140 (or (or (= node_0x7ffff17365f0 (_ bv0 64)) (= node_0x7ffff172e1e0 (_ bv0 64))) (and (distinct fmul_0x7ffff1736b20 (_ bv0 64)) true))))
 (let ((?x134 (bvmul node_0x7ffff17365f0 node_0x7ffff172e1e0)))
 (let (($x141 (and (= fmul_0x7ffff1736b20 ?x134) $x140)))
 (let (($x482 (= node_0x7ffff17365f0 fmul_0x7ffff1736790)))
 (let (($x150 (or (or (= node_0x7ffff1732920 (_ bv0 64)) (= node_0x7ffff1732920 (_ bv0 64))) (and (distinct fmul_0x7ffff1736790 (_ bv0 64)) true))))
 (let ((?x145 (bvmul node_0x7ffff1732920 node_0x7ffff1732920)))
 (let (($x151 (and (= fmul_0x7ffff1736790 ?x145) $x150)))
 (let (($x533 (= node_0x7ffff1732920 fsub_0x7ffff1732ac0)))
 (let (($x157 (= fsub_0x7ffff1732ac0 (bvsub node_0x7ffff17324d0 carg_node_0x7ffff172b590))))
 (let (($x550 (= node_0x7ffff17324d0 LdMem_0x7ffff1732650)))
 (let (($x389 (= LdMem_0x7ffff1732650 StMem_0x1211be10)))
 (and (or (not (= R0x7ffff172aca0 (_ bv1 1))) $x389) $x389 (= StMem_0x1211be10 pcso_node_0x1211bc60) $x550 $x157 $x533 $x151 $x482 $x141 $x275 $x203 $x438 $x129 (or (not (= R0x7ffff172aca0 (_ bv1 1))) $x114) $x114 (= StMem_0x1211b650 pcso_node_0x1211b470) $x545 $x231 $x387 $x225 $x549 $x215 $x404 $x248 $x587 $x474 $x123 $x280 $x256 $x277))))))))))))))))))))))))))))))))))))))))))))))))
(assert
 (= carg_node_0x7ffff06e17e0_CS0x4148268 node_0x7ffff1736220))
(assert
 (let (($x265 (= node_0x7ffff1736220 fmul_0x7ffff17363c0)))
 (let (($x312 (or (or (= (_ bv2 64) (_ bv0 64)) (= node_0x7ffff1735d10 (_ bv0 64))) (and (distinct fmul_0x7ffff17363c0 (_ bv0 64)) true))))
 (let (($x313 (and (= fmul_0x7ffff17363c0 (bvmul (_ bv2 64) node_0x7ffff1735d10)) $x312)))
 (let (($x259 (= node_0x7ffff1735d10 fadd_0x7ffff1735eb0)))
 (let (($x487 (= node_0x7ffff1735940 fmul_0x7ffff1735ae0)))
 (let (($x355 (or (or (= node_0x7ffff1735570 (_ bv0 64)) (= node_0x7ffff172e550 (_ bv0 64))) (and (distinct fmul_0x7ffff1735ae0 (_ bv0 64)) true))))
 (let (($x351 (= fmul_0x7ffff1735ae0 (bvmul node_0x7ffff1735570 node_0x7ffff172e550))))
 (let (($x356 (and $x351 $x355)))
 (let (($x496 (= node_0x7ffff1735570 fmul_0x7ffff1735710)))
 (let (($x365 (or (or (= node_0x7ffff1735100 (_ bv0 64)) (= node_0x7ffff1733560 (_ bv0 64))) (and (distinct fmul_0x7ffff1735710 (_ bv0 64)) true))))
 (let (($x361 (= fmul_0x7ffff1735710 (bvmul node_0x7ffff1735100 node_0x7ffff1733560))))
 (let (($x366 (and $x361 $x365)))
 (let (($x497 (= node_0x7ffff1735100 LdMem_0x7ffff17305e0)))
 (let (($x523 (= LdMem_0x7ffff17305e0 StMem_0x12117fc0)))
 (let ((?x318 (bvadd node_0x7ffff1734930 node_0x7ffff1735940)))
 (let (($x319 (= fadd_0x7ffff1735eb0 ?x318)))
 (let (($x552 (= node_0x7ffff1734930 fmul_0x7ffff1734ad0)))
 (let (($x328 (or (or (= node_0x7ffff1734150 (_ bv0 64)) (= node_0x7ffff172e1e0 (_ bv0 64))) (and (distinct fmul_0x7ffff1734ad0 (_ bv0 64)) true))))
 (let (($x324 (= fmul_0x7ffff1734ad0 (bvmul node_0x7ffff1734150 node_0x7ffff172e1e0))))
 (let (($x329 (and $x324 $x328)))
 (let (($x553 (= node_0x7ffff1734150 fmul_0x7ffff1734700)))
 (let (($x338 (or (or (= node_0x7ffff1733d30 (_ bv0 64)) (= node_0x7ffff1732920 (_ bv0 64))) (and (distinct fmul_0x7ffff1734700 (_ bv0 64)) true))))
 (let (($x334 (= fmul_0x7ffff1734700 (bvmul node_0x7ffff1733d30 node_0x7ffff1732920))))
 (let (($x339 (and $x334 $x338)))
 (let (($x555 (= LdMem_0x7ffff172ed80 StMem_0x121187c0)))
 (and (or (not (= R0x7ffff172aca0 (_ bv1 1))) $x555) $x555 (= StMem_0x121187c0 pcso_node_0x12118610) (= node_0x7ffff1733d30 LdMem_0x7ffff172ed80) $x339 $x553 $x329 $x552 $x319 (or (not (= R0x7ffff172aca0 (_ bv1 1))) $x523) $x523 (= StMem_0x12117fc0 pcso_node_0x12117e10) $x497 $x366 $x496 $x356 $x487 $x259 $x313 $x265)))))))))))))))))))))))))))
(assert
 (= carg_node_0x7ffff06e1570_CS0x4148268 node_0x7ffff1731ac0))
(assert
 (let (($x544 (= node_0x7ffff1731ac0 fadd_0x7ffff1731c60)))
 (let (($x597 (= node_0x7ffff1731510 fmul_0x7ffff1731890)))
 (let (($x445 (or (or (= node_0x7ffff1731140 (_ bv0 64)) (= node_0x7ffff172e550 (_ bv0 64))) (and (distinct fmul_0x7ffff1731890 (_ bv0 64)) true))))
 (let (($x441 (= fmul_0x7ffff1731890 (bvmul node_0x7ffff1731140 node_0x7ffff172e550))))
 (let (($x446 (and $x441 $x445)))
 (let (($x595 (= node_0x7ffff1731140 fmul_0x7ffff17312e0)))
 (let (($x457 (or (or (= node_0x7ffff1730440 (_ bv0 64)) (= node_0x7ffff1730cd0 (_ bv0 64))) (and (distinct fmul_0x7ffff17312e0 (_ bv0 64)) true))))
 (let (($x452 (= fmul_0x7ffff17312e0 (bvmul node_0x7ffff1730440 node_0x7ffff1730cd0))))
 (let (($x458 (and $x452 $x457)))
 (let ((?x411 (bvadd node_0x7ffff172fc50 node_0x7ffff1731510)))
 (let (($x412 (= fadd_0x7ffff1731c60 ?x411)))
 (let (($x524 (= node_0x7ffff172fc50 fmul_0x7ffff172fdf0)))
 (let (($x421 (or (or (= node_0x7ffff172f880 (_ bv0 64)) (= node_0x7ffff172e1e0 (_ bv0 64))) (and (distinct fmul_0x7ffff172fdf0 (_ bv0 64)) true))))
 (let (($x417 (= fmul_0x7ffff172fdf0 (bvmul node_0x7ffff172f880 node_0x7ffff172e1e0))))
 (let (($x422 (and $x417 $x421)))
 (let (($x131 (= node_0x7ffff172f880 fmul_0x7ffff172fa20)))
 (let (($x433 (or (or (= node_0x7ffff172ec00 (_ bv0 64)) (= node_0x7ffff172f410 (_ bv0 64))) (and (distinct fmul_0x7ffff172fa20 (_ bv0 64)) true))))
 (let (($x428 (= fmul_0x7ffff172fa20 (bvmul node_0x7ffff172ec00 node_0x7ffff172f410))))
 (let (($x434 (and $x428 $x433)))
 (and $x434 (= node_0x7ffff172ec00 LdMem_0x7ffff172ed80) (= node_0x7ffff172f410 LdMem_0x7ffff172ed80) $x131 $x422 $x524 $x412 $x458 (= node_0x7ffff1730440 LdMem_0x7ffff17305e0) (= node_0x7ffff1730cd0 LdMem_0x7ffff17305e0) $x595 $x446 $x597 $x544)))))))))))))))))))))
(assert
 (= return_node_0x7ffff06e1fc0_CS0x4148268 ccso_node_0x7ffff1738220))
(assert
 (= parg_node_0x107ae730_CS0x4146978 node_0x1211b120))
(assert
 (let (($x588 (= node_0x1211b120 LdMem_0x1211aad0)))
 (let (($x580 (= LdMem_0x1211aad0 StMem_0x1211ac40)))
 (and (or (not (= R0x7ffff172aca0 (_ bv1 1))) $x580) $x580 (= StMem_0x1211ac40 parg_node_0x1211adf0) $x588))))
(assert
 (= node_0x107b0280_CS0x4146978 pcso_node_0x1211bc60))
(assert
 (= parg_node_0x107adc10_CS0x4146978 node_0x1211c2f0))
(assert
 (let (($x592 (= LdMem_0x12119f60 StMem_0x1211a0a0)))
 (and (or (not (= R0x7ffff172aca0 (_ bv1 1))) $x592) $x592 (= StMem_0x1211a0a0 parg_node_0x1211a1b0) (= node_0x1211c2f0 LdMem_0x12119f60))))
(assert
 (= node_0x107af910_CS0x4146978 pcso_node_0x1211b470))
(assert
 (= parg_node_0x107b61b0_CS0x41455c8 node_0x12119e20))
(assert
 (let (($x236 (= LdMem_0x12117a90 StMem_0x12117bd0)))
 (and (or (not (= R0x7ffff172aca0 (_ bv1 1))) $x236) $x236 (= StMem_0x12117bd0 parg_node_0x12117ce0) (= node_0x12119e20 LdMem_0x12117a90))))
(assert
 (= node_0x107b7d30_CS0x41455c8 pcso_node_0x12118610))
(assert
 (= parg_node_0x107b5690_CS0x41455c8 node_0x7c37ea0))
(assert
 (let (($x383 (= LdMem_0x12117710 StMem_0x12117850)))
 (and (or (not (= R0x7ffff172aca0 (_ bv1 1))) $x383) $x383 (= StMem_0x12117850 parg_node_0x12117960) (= node_0x7c37ea0 LdMem_0x12117710))))
(assert
 (= node_0x107b7470_CS0x41455c8 pcso_node_0x12117e10))
(assert
 (and (distinct carg_node_0x7ffff172be90 (_ bv0 64)) true))
(maximize pcso_node_0x12117e10)
(minimize LdMem_0x7ffff172ed80)
(minimize fmul_0x7ffff172fdf0)
(maximize node_0x7ffff172c550)
(maximize carg_node_0x7ffff172b780)
(minimize parg_node_0x12117ce0)
(maximize node_0x7ffff1731510)
(maximize node_0x7ffff17370e0)
(minimize R0x7ffff172aca0)
(maximize StMem_0x1211be10)
(maximize node_0x7ffff1730cd0)
(minimize node_0x7ffff1737c50)
(minimize fmul_0x7ffff1736790)
(maximize node_0x12119e20)
(minimize node_0x7ffff1733560)
(maximize parg_node_0x12117ce0)
(minimize node_0x107b0280_CS0x4146978)
(minimize node_0x7ffff1730440)
(minimize StMem_0x121187c0)
(minimize node_0x7c37ea0)
(maximize LdMem_0x12117a90)
(maximize LdMem_0x7ffff1732650)
(maximize node_0x7ffff1733560)
(minimize node_0x107b7470_CS0x41455c8)
(maximize node_0x7ffff172f410)
(minimize StMem_0x1211a0a0)
(minimize node_0x7ffff17374b0)
(minimize carg_node_0x7ffff172ba80)
(minimize LdMem_0x7ffff17305e0)
(minimize node_0x7ffff1736220)
(minimize node_0x1211b120)
(minimize StMem_0x1211ac40)
(maximize return_node_0x7ffff06e1fc0_CS0x4148268)
(minimize node_0x7ffff1733d30)
(minimize carg_node_0x7ffff172b590)
(minimize node_0x7ffff1730cd0)
(maximize carg_node_0x7ffff172be90)
(maximize fmul_0x7ffff1734ad0)
(minimize fmul_0x7ffff17312e0)
(maximize node_0x7ffff17374b0)
(minimize LdMem_0x1211aad0)
(maximize pcso_node_0x12118610)
(minimize parg_node_0x107b61b0_CS0x41455c8)
(minimize node_0x7ffff1737880)
(minimize node_0x7ffff1735940)
(minimize fsub_0x7ffff1732ac0)
(maximize node_0x7ffff172e550)
(maximize StMem_0x12117fc0)
(minimize parg_node_0x12117960)
(minimize fmul_0x7ffff1731890)
(check-sat)
(get-objectives)
